p cnf 258 1186
1 0
-2 0
-3 0
-4 0
-5 0
31 6 0
-31 -6 0
-6 -181 0
-6 -182 0
-6 -183 0
-7 181 0
-7 -182 0
-7 -183 0
-8 -181 0
-8 182 0
-8 -183 0
-9 181 0
-9 182 0
-9 -183 0
-10 -181 0
-10 -182 0
-10 183 0
-6 1 11 0
-6 1 36 0
-6 11 36 0
-7 2 12 0
-7 2 37 0
-7 12 37 0
-8 3 13 0
-8 3 38 0
-8 13 38 0
-9 4 14 0
-9 4 39 0
-9 14 39 0
-10 5 15 0
-10 5 40 0
-10 15 40 0
-6 -1 -11 -36 0
-7 -2 -12 -37 0
-8 -3 -13 -38 0
-9 -4 -14 -39 0
-10 -5 -15 -40 0
11 0
-12 0
-13 0
-14 0
-15 0
6 16 41 0
-6 -16 0
-6 -41 0
-16 -41 0
17 0
-16 0
-18 0
-19 0
-20 0
12 22 47 0
-12 -22 0
-12 -47 0
-22 -47 0
23 0
-21 0
-22 0
-24 0
-25 0
18 28 53 0
-18 -28 0
-18 -53 0
-28 -53 0
-26 -184 0
-26 -185 0
-26 -186 0
-27 184 0
-27 -185 0
-27 -186 0
-28 -184 0
-28 185 0
-28 -186 0
-29 184 0
-29 185 0
-29 -186 0
-30 -184 0
-30 -185 0
-30 186 0
-26 56 0
-26 21 0
-27 57 0
-27 22 0
-28 58 0
-28 23 0
-29 59 0
-29 24 0
-30 60 0
-30 25 0
-31 -187 0
-31 -188 0
-31 -189 0
-32 187 0
-32 -188 0
-32 -189 0
-33 -187 0
-33 188 0
-33 -189 0
-34 187 0
-34 188 0
-34 -189 0
-35 -187 0
-35 -188 0
-35 189 0
-31 61 36 0
-31 61 1 0
-31 36 1 0
-32 62 37 0
-32 62 2 0
-32 37 2 0
-33 63 38 0
-33 63 3 0
-33 38 3 0
-34 64 39 0
-34 64 4 0
-34 39 4 0
-35 65 40 0
-35 65 5 0
-35 40 5 0
-31 -61 -36 -1 0
-32 -62 -37 -2 0
-33 -63 -38 -3 0
-34 -64 -39 -4 0
-35 -65 -40 -5 0
-36 -190 0
-36 -191 0
-36 -192 0
-37 190 0
-37 -191 0
-37 -192 0
-38 -190 0
-38 191 0
-38 -192 0
-39 190 0
-39 191 0
-39 -192 0
-40 -190 0
-40 -191 0
-40 192 0
-36 66 41 6 0
-36 66 41 31 0
-36 66 6 31 0
-36 41 6 31 0
-37 67 42 7 0
-37 67 42 32 0
-37 67 7 32 0
-37 42 7 32 0
-38 68 43 8 0
-38 68 43 33 0
-38 68 8 33 0
-38 43 8 33 0
-39 69 44 9 0
-39 69 44 34 0
-39 69 9 34 0
-39 44 9 34 0
-40 70 45 10 0
-40 70 45 35 0
-40 70 10 35 0
-40 45 10 35 0
-36 -66 -41 -6 0
-36 -66 -41 -31 0
-36 -66 -6 -31 0
-36 -41 -6 -31 0
-37 -67 -42 -7 0
-37 -67 -42 -32 0
-37 -67 -7 -32 0
-37 -42 -7 -32 0
-38 -68 -43 -8 0
-38 -68 -43 -33 0
-38 -68 -8 -33 0
-38 -43 -8 -33 0
-39 -69 -44 -9 0
-39 -69 -44 -34 0
-39 -69 -9 -34 0
-39 -44 -9 -34 0
-40 -70 -45 -10 0
-40 -70 -45 -35 0
-40 -70 -10 -35 0
-40 -45 -10 -35 0
-41 -193 0
-41 -194 0
-41 -195 0
-42 193 0
-42 -194 0
-42 -195 0
-43 -193 0
-43 194 0
-43 -195 0
-44 193 0
-44 194 0
-44 -195 0
-45 -193 0
-45 -194 0
-45 195 0
-41 71 46 11 0
-41 71 46 36 0
-41 71 11 36 0
-41 46 11 36 0
-42 72 47 12 0
-42 72 47 37 0
-42 72 12 37 0
-42 47 12 37 0
-43 73 48 13 0
-43 73 48 38 0
-43 73 13 38 0
-43 48 13 38 0
-44 74 49 14 0
-44 74 49 39 0
-44 74 14 39 0
-44 49 14 39 0
-45 75 50 15 0
-45 75 50 40 0
-45 75 15 40 0
-45 50 15 40 0
-41 -71 -46 -11 0
-41 -71 -46 -36 0
-41 -71 -11 -36 0
-41 -46 -11 -36 0
-42 -72 -47 -12 0
-42 -72 -47 -37 0
-42 -72 -12 -37 0
-42 -47 -12 -37 0
-43 -73 -48 -13 0
-43 -73 -48 -38 0
-43 -73 -13 -38 0
-43 -48 -13 -38 0
-44 -74 -49 -14 0
-44 -74 -49 -39 0
-44 -74 -14 -39 0
-44 -49 -14 -39 0
-45 -75 -50 -15 0
-45 -75 -50 -40 0
-45 -75 -15 -40 0
-45 -50 -15 -40 0
-46 -196 0
-46 -197 0
-46 -198 0
-47 196 0
-47 -197 0
-47 -198 0
-48 -196 0
-48 197 0
-48 -198 0
-49 196 0
-49 197 0
-49 -198 0
-50 -196 0
-50 -197 0
-50 198 0
-46 76 51 16 0
-46 76 51 41 0
-46 76 16 41 0
-46 51 16 41 0
-47 77 52 17 0
-47 77 52 42 0
-47 77 17 42 0
-47 52 17 42 0
-48 78 53 18 0
-48 78 53 43 0
-48 78 18 43 0
-48 53 18 43 0
-49 79 54 19 0
-49 79 54 44 0
-49 79 19 44 0
-49 54 19 44 0
-50 80 55 20 0
-50 80 55 45 0
-50 80 20 45 0
-50 55 20 45 0
-46 -76 -51 -16 0
-46 -76 -51 -41 0
-46 -76 -16 -41 0
-46 -51 -16 -41 0
-47 -77 -52 -17 0
-47 -77 -52 -42 0
-47 -77 -17 -42 0
-47 -52 -17 -42 0
-48 -78 -53 -18 0
-48 -78 -53 -43 0
-48 -78 -18 -43 0
-48 -53 -18 -43 0
-49 -79 -54 -19 0
-49 -79 -54 -44 0
-49 -79 -19 -44 0
-49 -54 -19 -44 0
-50 -80 -55 -20 0
-50 -80 -55 -45 0
-50 -80 -20 -45 0
-50 -55 -20 -45 0
-51 -199 0
-51 -200 0
-51 -201 0
-52 199 0
-52 -200 0
-52 -201 0
-53 -199 0
-53 200 0
-53 -201 0
-54 199 0
-54 200 0
-54 -201 0
-55 -199 0
-55 -200 0
-55 201 0
-51 81 56 21 0
-51 81 56 46 0
-51 81 21 46 0
-51 56 21 46 0
-52 82 57 22 0
-52 82 57 47 0
-52 82 22 47 0
-52 57 22 47 0
-53 83 58 23 0
-53 83 58 48 0
-53 83 23 48 0
-53 58 23 48 0
-54 84 59 24 0
-54 84 59 49 0
-54 84 24 49 0
-54 59 24 49 0
-55 85 60 25 0
-55 85 60 50 0
-55 85 25 50 0
-55 60 25 50 0
-51 -81 -56 -21 0
-51 -81 -56 -46 0
-51 -81 -21 -46 0
-51 -56 -21 -46 0
-52 -82 -57 -22 0
-52 -82 -57 -47 0
-52 -82 -22 -47 0
-52 -57 -22 -47 0
-53 -83 -58 -23 0
-53 -83 -58 -48 0
-53 -83 -23 -48 0
-53 -58 -23 -48 0
-54 -84 -59 -24 0
-54 -84 -59 -49 0
-54 -84 -24 -49 0
-54 -59 -24 -49 0
-55 -85 -60 -25 0
-55 -85 -60 -50 0
-55 -85 -25 -50 0
-55 -60 -25 -50 0
-56 -202 0
-56 -203 0
-56 -204 0
-57 202 0
-57 -203 0
-57 -204 0
-58 -202 0
-58 203 0
-58 -204 0
-59 202 0
-59 203 0
-59 -204 0
-60 -202 0
-60 -203 0
-60 204 0
-56 86 51 0
-56 86 26 0
-56 51 26 0
-57 87 52 0
-57 87 27 0
-57 52 27 0
-58 88 53 0
-58 88 28 0
-58 53 28 0
-59 89 54 0
-59 89 29 0
-59 54 29 0
-60 90 55 0
-60 90 30 0
-60 55 30 0
-56 -86 -51 -26 0
-57 -87 -52 -27 0
-58 -88 -53 -28 0
-59 -89 -54 -29 0
-60 -90 -55 -30 0
-61 -205 0
-61 -206 0
-61 -207 0
-62 205 0
-62 -206 0
-62 -207 0
-63 -205 0
-63 206 0
-63 -207 0
-64 205 0
-64 206 0
-64 -207 0
-65 -205 0
-65 -206 0
-65 207 0
-61 91 66 0
-61 91 31 0
-61 66 31 0
-62 92 67 0
-62 92 32 0
-62 67 32 0
-63 93 68 0
-63 93 33 0
-63 68 33 0
-64 94 69 0
-64 94 34 0
-64 69 34 0
-65 95 70 0
-65 95 35 0
-65 70 35 0
-61 -91 -66 -31 0
-62 -92 -67 -32 0
-63 -93 -68 -33 0
-64 -94 -69 -34 0
-65 -95 -70 -35 0
69 0
-66 0
-67 0
-68 0
-70 0
99 74 39 64 0
-99 -74 0
-99 -39 0
-99 -64 0
-74 -39 0
-74 -64 0
-39 -64 0
73 0
-71 0
-72 0
-74 0
-75 0
103 78 43 68 0
-103 -78 0
-103 -43 0
-103 -68 0
-78 -43 0
-78 -68 0
-43 -68 0
80 0
-76 0
-77 0
-78 0
-79 0
110 85 50 75 0
-110 -85 0
-110 -50 0
-110 -75 0
-85 -50 0
-85 -75 0
-50 -75 0
-81 -208 0
-81 -209 0
-81 -210 0
-82 208 0
-82 -209 0
-82 -210 0
-83 -208 0
-83 209 0
-83 -210 0
-84 208 0
-84 209 0
-84 -210 0
-85 -208 0
-85 -209 0
-85 210 0
-81 111 86 51 0
-81 111 86 76 0
-81 111 51 76 0
-81 86 51 76 0
-82 112 87 52 0
-82 112 87 77 0
-82 112 52 77 0
-82 87 52 77 0
-83 113 88 53 0
-83 113 88 78 0
-83 113 53 78 0
-83 88 53 78 0
-84 114 89 54 0
-84 114 89 79 0
-84 114 54 79 0
-84 89 54 79 0
-85 115 90 55 0
-85 115 90 80 0
-85 115 55 80 0
-85 90 55 80 0
-81 -111 -86 -51 0
-81 -111 -86 -76 0
-81 -111 -51 -76 0
-81 -86 -51 -76 0
-82 -112 -87 -52 0
-82 -112 -87 -77 0
-82 -112 -52 -77 0
-82 -87 -52 -77 0
-83 -113 -88 -53 0
-83 -113 -88 -78 0
-83 -113 -53 -78 0
-83 -88 -53 -78 0
-84 -114 -89 -54 0
-84 -114 -89 -79 0
-84 -114 -54 -79 0
-84 -89 -54 -79 0
-85 -115 -90 -55 0
-85 -115 -90 -80 0
-85 -115 -55 -80 0
-85 -90 -55 -80 0
-86 -211 0
-86 -212 0
-86 -213 0
-87 211 0
-87 -212 0
-87 -213 0
-88 -211 0
-88 212 0
-88 -213 0
-89 211 0
-89 212 0
-89 -213 0
-90 -211 0
-90 -212 0
-90 213 0
-86 116 81 0
-86 116 56 0
-86 81 56 0
-87 117 82 0
-87 117 57 0
-87 82 57 0
-88 118 83 0
-88 118 58 0
-88 83 58 0
-89 119 84 0
-89 119 59 0
-89 84 59 0
-90 120 85 0
-90 120 60 0
-90 85 60 0
-86 -116 -81 -56 0
-87 -117 -82 -57 0
-88 -118 -83 -58 0
-89 -119 -84 -59 0
-90 -120 -85 -60 0
-91 -214 0
-91 -215 0
-91 -216 0
-92 214 0
-92 -215 0
-92 -216 0
-93 -214 0
-93 215 0
-93 -216 0
-94 214 0
-94 215 0
-94 -216 0
-95 -214 0
-95 -215 0
-95 216 0
-91 121 96 0
-91 121 61 0
-91 96 61 0
-92 122 97 0
-92 122 62 0
-92 97 62 0
-93 123 98 0
-93 123 63 0
-93 98 63 0
-94 124 99 0
-94 124 64 0
-94 99 64 0
-95 125 100 0
-95 125 65 0
-95 100 65 0
-91 -121 -96 -61 0
-92 -122 -97 -62 0
-93 -123 -98 -63 0
-94 -124 -99 -64 0
-95 -125 -100 -65 0
-96 -217 0
-96 -218 0
-96 -219 0
-97 217 0
-97 -218 0
-97 -219 0
-98 -217 0
-98 218 0
-98 -219 0
-99 217 0
-99 218 0
-99 -219 0
-100 -217 0
-100 -218 0
-100 219 0
-96 126 101 66 0
-96 126 101 91 0
-96 126 66 91 0
-96 101 66 91 0
-97 127 102 67 0
-97 127 102 92 0
-97 127 67 92 0
-97 102 67 92 0
-98 128 103 68 0
-98 128 103 93 0
-98 128 68 93 0
-98 103 68 93 0
-99 129 104 69 0
-99 129 104 94 0
-99 129 69 94 0
-99 104 69 94 0
-100 130 105 70 0
-100 130 105 95 0
-100 130 70 95 0
-100 105 70 95 0
-96 -126 -101 -66 0
-96 -126 -101 -91 0
-96 -126 -66 -91 0
-96 -101 -66 -91 0
-97 -127 -102 -67 0
-97 -127 -102 -92 0
-97 -127 -67 -92 0
-97 -102 -67 -92 0
-98 -128 -103 -68 0
-98 -128 -103 -93 0
-98 -128 -68 -93 0
-98 -103 -68 -93 0
-99 -129 -104 -69 0
-99 -129 -104 -94 0
-99 -129 -69 -94 0
-99 -104 -69 -94 0
-100 -130 -105 -70 0
-100 -130 -105 -95 0
-100 -130 -70 -95 0
-100 -105 -70 -95 0
105 0
-101 0
-102 0
-103 0
-104 0
135 110 75 100 0
-135 -110 0
-135 -75 0
-135 -100 0
-110 -75 0
-110 -100 0
-75 -100 0
-106 -220 0
-106 -221 0
-106 -222 0
-107 220 0
-107 -221 0
-107 -222 0
-108 -220 0
-108 221 0
-108 -222 0
-109 220 0
-109 221 0
-109 -222 0
-110 -220 0
-110 -221 0
-110 222 0
-106 136 111 76 0
-106 136 111 101 0
-106 136 76 101 0
-106 111 76 101 0
-107 137 112 77 0
-107 137 112 102 0
-107 137 77 102 0
-107 112 77 102 0
-108 138 113 78 0
-108 138 113 103 0
-108 138 78 103 0
-108 113 78 103 0
-109 139 114 79 0
-109 139 114 104 0
-109 139 79 104 0
-109 114 79 104 0
-110 140 115 80 0
-110 140 115 105 0
-110 140 80 105 0
-110 115 80 105 0
-106 -136 -111 -76 0
-106 -136 -111 -101 0
-106 -136 -76 -101 0
-106 -111 -76 -101 0
-107 -137 -112 -77 0
-107 -137 -112 -102 0
-107 -137 -77 -102 0
-107 -112 -77 -102 0
-108 -138 -113 -78 0
-108 -138 -113 -103 0
-108 -138 -78 -103 0
-108 -113 -78 -103 0
-109 -139 -114 -79 0
-109 -139 -114 -104 0
-109 -139 -79 -104 0
-109 -114 -79 -104 0
-110 -140 -115 -80 0
-110 -140 -115 -105 0
-110 -140 -80 -105 0
-110 -115 -80 -105 0
-111 -223 0
-111 -224 0
-111 -225 0
-112 223 0
-112 -224 0
-112 -225 0
-113 -223 0
-113 224 0
-113 -225 0
-114 223 0
-114 224 0
-114 -225 0
-115 -223 0
-115 -224 0
-115 225 0
-111 141 116 81 0
-111 141 116 106 0
-111 141 81 106 0
-111 116 81 106 0
-112 142 117 82 0
-112 142 117 107 0
-112 142 82 107 0
-112 117 82 107 0
-113 143 118 83 0
-113 143 118 108 0
-113 143 83 108 0
-113 118 83 108 0
-114 144 119 84 0
-114 144 119 109 0
-114 144 84 109 0
-114 119 84 109 0
-115 145 120 85 0
-115 145 120 110 0
-115 145 85 110 0
-115 120 85 110 0
-111 -141 -116 -81 0
-111 -141 -116 -106 0
-111 -141 -81 -106 0
-111 -116 -81 -106 0
-112 -142 -117 -82 0
-112 -142 -117 -107 0
-112 -142 -82 -107 0
-112 -117 -82 -107 0
-113 -143 -118 -83 0
-113 -143 -118 -108 0
-113 -143 -83 -108 0
-113 -118 -83 -108 0
-114 -144 -119 -84 0
-114 -144 -119 -109 0
-114 -144 -84 -109 0
-114 -119 -84 -109 0
-115 -145 -120 -85 0
-115 -145 -120 -110 0
-115 -145 -85 -110 0
-115 -120 -85 -110 0
-116 -226 0
-116 -227 0
-116 -228 0
-117 226 0
-117 -227 0
-117 -228 0
-118 -226 0
-118 227 0
-118 -228 0
-119 226 0
-119 227 0
-119 -228 0
-120 -226 0
-120 -227 0
-120 228 0
-116 146 111 0
-116 146 86 0
-116 111 86 0
-117 147 112 0
-117 147 87 0
-117 112 87 0
-118 148 113 0
-118 148 88 0
-118 113 88 0
-119 149 114 0
-119 149 89 0
-119 114 89 0
-120 150 115 0
-120 150 90 0
-120 115 90 0
-116 -146 -111 -86 0
-117 -147 -112 -87 0
-118 -148 -113 -88 0
-119 -149 -114 -89 0
-120 -150 -115 -90 0
-121 -229 0
-121 -230 0
-121 -231 0
-122 229 0
-122 -230 0
-122 -231 0
-123 -229 0
-123 230 0
-123 -231 0
-124 229 0
-124 230 0
-124 -231 0
-125 -229 0
-125 -230 0
-125 231 0
-121 151 126 0
-121 151 91 0
-121 126 91 0
-122 152 127 0
-122 152 92 0
-122 127 92 0
-123 153 128 0
-123 153 93 0
-123 128 93 0
-124 154 129 0
-124 154 94 0
-124 129 94 0
-125 155 130 0
-125 155 95 0
-125 130 95 0
-121 -151 -126 -91 0
-122 -152 -127 -92 0
-123 -153 -128 -93 0
-124 -154 -129 -94 0
-125 -155 -130 -95 0
-126 -232 0
-126 -233 0
-126 -234 0
-127 232 0
-127 -233 0
-127 -234 0
-128 -232 0
-128 233 0
-128 -234 0
-129 232 0
-129 233 0
-129 -234 0
-130 -232 0
-130 -233 0
-130 234 0
-126 156 131 96 0
-126 156 131 121 0
-126 156 96 121 0
-126 131 96 121 0
-127 157 132 97 0
-127 157 132 122 0
-127 157 97 122 0
-127 132 97 122 0
-128 158 133 98 0
-128 158 133 123 0
-128 158 98 123 0
-128 133 98 123 0
-129 159 134 99 0
-129 159 134 124 0
-129 159 99 124 0
-129 134 99 124 0
-130 160 135 100 0
-130 160 135 125 0
-130 160 100 125 0
-130 135 100 125 0
-126 -156 -131 -96 0
-126 -156 -131 -121 0
-126 -156 -96 -121 0
-126 -131 -96 -121 0
-127 -157 -132 -97 0
-127 -157 -132 -122 0
-127 -157 -97 -122 0
-127 -132 -97 -122 0
-128 -158 -133 -98 0
-128 -158 -133 -123 0
-128 -158 -98 -123 0
-128 -133 -98 -123 0
-129 -159 -134 -99 0
-129 -159 -134 -124 0
-129 -159 -99 -124 0
-129 -134 -99 -124 0
-130 -160 -135 -100 0
-130 -160 -135 -125 0
-130 -160 -100 -125 0
-130 -135 -100 -125 0
134 0
-131 0
-132 0
-133 0
-135 0
164 139 104 129 0
-164 -139 0
-164 -104 0
-164 -129 0
-139 -104 0
-139 -129 0
-104 -129 0
137 0
-136 0
-138 0
-139 0
-140 0
167 142 107 132 0
-167 -142 0
-167 -107 0
-167 -132 0
-142 -107 0
-142 -132 0
-107 -132 0
-141 -235 0
-141 -236 0
-141 -237 0
-142 235 0
-142 -236 0
-142 -237 0
-143 -235 0
-143 236 0
-143 -237 0
-144 235 0
-144 236 0
-144 -237 0
-145 -235 0
-145 -236 0
-145 237 0
-141 171 146 111 0
-141 171 146 136 0
-141 171 111 136 0
-141 146 111 136 0
-142 172 147 112 0
-142 172 147 137 0
-142 172 112 137 0
-142 147 112 137 0
-143 173 148 113 0
-143 173 148 138 0
-143 173 113 138 0
-143 148 113 138 0
-144 174 149 114 0
-144 174 149 139 0
-144 174 114 139 0
-144 149 114 139 0
-145 175 150 115 0
-145 175 150 140 0
-145 175 115 140 0
-145 150 115 140 0
-141 -171 -146 -111 0
-141 -171 -146 -136 0
-141 -171 -111 -136 0
-141 -146 -111 -136 0
-142 -172 -147 -112 0
-142 -172 -147 -137 0
-142 -172 -112 -137 0
-142 -147 -112 -137 0
-143 -173 -148 -113 0
-143 -173 -148 -138 0
-143 -173 -113 -138 0
-143 -148 -113 -138 0
-144 -174 -149 -114 0
-144 -174 -149 -139 0
-144 -174 -114 -139 0
-144 -149 -114 -139 0
-145 -175 -150 -115 0
-145 -175 -150 -140 0
-145 -175 -115 -140 0
-145 -150 -115 -140 0
-146 -238 0
-146 -239 0
-146 -240 0
-147 238 0
-147 -239 0
-147 -240 0
-148 -238 0
-148 239 0
-148 -240 0
-149 238 0
-149 239 0
-149 -240 0
-150 -238 0
-150 -239 0
-150 240 0
-146 176 141 0
-146 176 116 0
-146 141 116 0
-147 177 142 0
-147 177 117 0
-147 142 117 0
-148 178 143 0
-148 178 118 0
-148 143 118 0
-149 179 144 0
-149 179 119 0
-149 144 119 0
-150 180 145 0
-150 180 120 0
-150 145 120 0
-146 -176 -141 -116 0
-147 -177 -142 -117 0
-148 -178 -143 -118 0
-149 -179 -144 -119 0
-150 -180 -145 -120 0
-151 -241 0
-151 -242 0
-151 -243 0
-152 241 0
-152 -242 0
-152 -243 0
-153 -241 0
-153 242 0
-153 -243 0
-154 241 0
-154 242 0
-154 -243 0
-155 -241 0
-155 -242 0
-155 243 0
-151 121 0
-151 156 0
-152 122 0
-152 157 0
-153 123 0
-153 158 0
-154 124 0
-154 159 0
-155 125 0
-155 160 0
-156 -244 0
-156 -245 0
-156 -246 0
-157 244 0
-157 -245 0
-157 -246 0
-158 -244 0
-158 245 0
-158 -246 0
-159 244 0
-159 245 0
-159 -246 0
-160 -244 0
-160 -245 0
-160 246 0
-156 126 161 0
-156 126 151 0
-156 161 151 0
-157 127 162 0
-157 127 152 0
-157 162 152 0
-158 128 163 0
-158 128 153 0
-158 163 153 0
-159 129 164 0
-159 129 154 0
-159 164 154 0
-160 130 165 0
-160 130 155 0
-160 165 155 0
-156 -126 -161 -151 0
-157 -127 -162 -152 0
-158 -128 -163 -153 0
-159 -129 -164 -154 0
-160 -130 -165 -155 0
-161 -247 0
-161 -248 0
-161 -249 0
-162 247 0
-162 -248 0
-162 -249 0
-163 -247 0
-163 248 0
-163 -249 0
-164 247 0
-164 248 0
-164 -249 0
-165 -247 0
-165 -248 0
-165 249 0
-161 131 166 0
-161 131 156 0
-161 166 156 0
-162 132 167 0
-162 132 157 0
-162 167 157 0
-163 133 168 0
-163 133 158 0
-163 168 158 0
-164 134 169 0
-164 134 159 0
-164 169 159 0
-165 135 170 0
-165 135 160 0
-165 170 160 0
-161 -131 -166 -156 0
-162 -132 -167 -157 0
-163 -133 -168 -158 0
-164 -134 -169 -159 0
-165 -135 -170 -160 0
-166 -250 0
-166 -251 0
-166 -252 0
-167 250 0
-167 -251 0
-167 -252 0
-168 -250 0
-168 251 0
-168 -252 0
-169 250 0
-169 251 0
-169 -252 0
-170 -250 0
-170 -251 0
-170 252 0
-166 136 171 0
-166 136 161 0
-166 171 161 0
-167 137 172 0
-167 137 162 0
-167 172 162 0
-168 138 173 0
-168 138 163 0
-168 173 163 0
-169 139 174 0
-169 139 164 0
-169 174 164 0
-170 140 175 0
-170 140 165 0
-170 175 165 0
-166 -136 -171 -161 0
-167 -137 -172 -162 0
-168 -138 -173 -163 0
-169 -139 -174 -164 0
-170 -140 -175 -165 0
-171 -253 0
-171 -254 0
-171 -255 0
-172 253 0
-172 -254 0
-172 -255 0
-173 -253 0
-173 254 0
-173 -255 0
-174 253 0
-174 254 0
-174 -255 0
-175 -253 0
-175 -254 0
-175 255 0
-171 141 176 0
-171 141 166 0
-171 176 166 0
-172 142 177 0
-172 142 167 0
-172 177 167 0
-173 143 178 0
-173 143 168 0
-173 178 168 0
-174 144 179 0
-174 144 169 0
-174 179 169 0
-175 145 180 0
-175 145 170 0
-175 180 170 0
-171 -141 -176 -166 0
-172 -142 -177 -167 0
-173 -143 -178 -168 0
-174 -144 -179 -169 0
-175 -145 -180 -170 0
-176 -256 0
-176 -257 0
-176 -258 0
-177 256 0
-177 -257 0
-177 -258 0
-178 -256 0
-178 257 0
-178 -258 0
-179 256 0
-179 257 0
-179 -258 0
-180 -256 0
-180 -257 0
-180 258 0
-176 146 0
-176 171 0
-177 147 0
-177 172 0
-178 148 0
-178 173 0
-179 149 0
-179 174 0
-180 150 0
-180 175 0